NAME : portcgen-28-22
COMMENT : portcgen N=28, seed=22
TYPE : TSP
DIMENSION : 28
EDGE_WEIGHT_TYPE : EUC_2D
NODE_COORD_SECTION
1 17092 -145227
2 -138706 -20714
3 64822 329673
4 -41209 -66331
5 10354 303950
6 -132034 43253
7 122829 -152879
8 112242 -97478
9 -100289 390038
10 301315 15290
11 -142443 310938
12 -56847 -203756
13 307494 154453
14 -201984 -101808
15 120656 109857
16 110589 28116
17 184298 96742
18 212821 57754
19 15399 124708
20 32292 -264763
21 -200931 -28109
22 -247764 -367911
23 -6501 84547
24 103017 -20189
25 -69189 81959
26 -236338 192698
27 2120 -286466
28 201431 -201897
